************************************************************************
file with basedata            : J12045_.BAS
initial value random generator: 1559204457
************************************************************************
projects                      :  1
jobs (incl. supersource/sink ):  122
horizon                       :  574
RESOURCES
  - renewable                 :  4   R
  - nonrenewable              :  0   N
  - doubly constrained        :  0   D
************************************************************************
PROJECT INFORMATION:
pronr.  #jobs rel.date duedate tardcost  MPM-Time
    1    120      0      103       11      103
************************************************************************
PRECEDENCE RELATIONS:
jobnr.    #modes  #successors   successors
   1        1          3           2   3   4
   2        1          3           7  31  41
   3        1          3           5  12 108
   4        1          3           6  10  21
   5        1          3           9  15  17
   6        1          3          13  16  37
   7        1          3           8  77  85
   8        1          3          36  57  60
   9        1          3          34  42  88
  10        1          3          11  14  32
  11        1          2          18  30
  12        1          3          45  68  71
  13        1          3          25  42 113
  14        1          3          19  20  39
  15        1          3          33  51  61
  16        1          3          26  84  86
  17        1          3          40  49  56
  18        1          3          38  50  58
  19        1          3          22  23  27
  20        1          3          24  43  65
  21        1          2          49  73
  22        1          3          28  71  99
  23        1          3          29  46  52
  24        1          1          35
  25        1          3          75  78 108
  26        1          3          65  96 107
  27        1          2          87 118
  28        1          3          37  45  62
  29        1          2          42  58
  30        1          2          44 107
  31        1          3          37  79 121
  32        1          2          54  91
  33        1          3          63  80 102
  34        1          3          38  41  47
  35        1          3          41  49  58
  36        1          3          44  48  82
  37        1          2          61  75
  38        1          2          85 115
  39        1          2          56  59
  40        1          3          46  54 105
  41        1          1         109
  42        1          2          69  98
  43        1          2          76 119
  44        1          1          55
  45        1          2          57  65
  46        1          3          73  81 101
  47        1          2          66  80
  48        1          3          67  69 119
  49        1          2          51  61
  50        1          3          91  92  97
  51        1          3          53  70  74
  52        1          2          54  79
  53        1          3          62  77  79
  54        1          2          68  71
  55        1          1          72
  56        1          2          81  83
  57        1          1         112
  58        1          3          59  60  72
  59        1          3          63  76  88
  60        1          3          64  82  86
  61        1          2          96 102
  62        1          3          63  67  92
  63        1          1         120
  64        1          3          66  69  87
  65        1          3          66  81  82
  66        1          2          67  94
  67        1          3          83  90  93
  68        1          3          73  80  90
  69        1          2          84 105
  70        1          3          75  89  94
  71        1          1         103
  72        1          3          76  86 108
  73        1          1          77
  74        1          3          78  83  85
  75        1          1         104
  76        1          1          78
  77        1          1          94
  78        1          2          84  89
  79        1          3          88  93  99
  80        1          3          92  97 115
  81        1          2          98 118
  82        1          2         102 114
  83        1          1          98
  84        1          2          95 104
  85        1          1          97
  86        1          3          87  91  93
  87        1          3          89  90  96
  88        1          1         100
  89        1          1          99
  90        1          1          95
  91        1          3         110 113 121
  92        1          1         101
  93        1          2         100 104
  94        1          2          95 100
  95        1          1         109
  96        1          1         113
  97        1          2         101 103
  98        1          1         106
  99        1          2         105 106
 100        1          1         111
 101        1          2         107 112
 102        1          2         103 119
 103        1          1         112
 104        1          1         106
 105        1          1         110
 106        1          2         110 111
 107        1          1         117
 108        1          1         109
 109        1          3         111 116 121
 110        1          2         114 116
 111        1          1         114
 112        1          1         118
 113        1          1         116
 114        1          1         115
 115        1          1         117
 116        1          1         117
 117        1          1         120
 118        1          1         120
 119        1          1         122
 120        1          1         122
 121        1          1         122
 122        1          0        
************************************************************************
REQUESTS/DURATIONS:
jobnr. mode duration  R 1  R 2  R 3  R 4
------------------------------------------------------------------------
  1      1     0       0    0    0    0
  2      1     3       0    0   10    0
  3      1     3       0    0    0    3
  4      1     4       0    7    0    0
  5      1     9       9    0    0    0
  6      1     4       0    5    0    0
  7      1     3      10    0    0    0
  8      1     7       2    0    0    0
  9      1     1       1    0    0    0
 10      1     6       0    0    0    2
 11      1     6       0    0    0   10
 12      1     6       0    0    5    0
 13      1     1       0    5    0    0
 14      1     6       0    0    6    0
 15      1     4       0    0   10    0
 16      1     4       0    0    5    0
 17      1     1       0    0    7    0
 18      1     8       0    0    3    0
 19      1     5       0    0    5    0
 20      1     7       0    0    2    0
 21      1     7       0    9    0    0
 22      1     1       0    0    4    0
 23      1     8       0    0   10    0
 24      1     3       0    8    0    0
 25      1     7       0    4    0    0
 26      1     1       0    5    0    0
 27      1     9       3    0    0    0
 28      1     5       0    0    4    0
 29      1     2       0    6    0    0
 30      1     8       8    0    0    0
 31      1     9       0    0    0    5
 32      1     1       3    0    0    0
 33      1     8      10    0    0    0
 34      1     4       0    6    0    0
 35      1     5      10    0    0    0
 36      1     3       2    0    0    0
 37      1     7       0    1    0    0
 38      1     2       0    0    0    4
 39      1     4       0    0    5    0
 40      1     1       0    0    5    0
 41      1     1       0    0    0    4
 42      1     2       0    0    5    0
 43      1     9       0    0    0    6
 44      1     4       0    0    0    7
 45      1     2       7    0    0    0
 46      1     1       0    4    0    0
 47      1     7       0    4    0    0
 48      1     1       0    0    1    0
 49      1     5       5    0    0    0
 50      1     8       7    0    0    0
 51      1    10       0    0    0    2
 52      1     2       0    5    0    0
 53      1     4       4    0    0    0
 54      1     5       0    0    3    0
 55      1    10       0    0    7    0
 56      1     9       3    0    0    0
 57      1     2       0    8    0    0
 58      1     1       4    0    0    0
 59      1     9       0    5    0    0
 60      1     7       3    0    0    0
 61      1     9       0    0    0    4
 62      1     1       0    0    0    1
 63      1     7       0    0    0    7
 64      1     4       7    0    0    0
 65      1     3       0    0    0    4
 66      1     8      10    0    0    0
 67      1     4       0    6    0    0
 68      1    10       0    8    0    0
 69      1     5       5    0    0    0
 70      1     1       4    0    0    0
 71      1     6       9    0    0    0
 72      1     7       8    0    0    0
 73      1     7       0    0    0    8
 74      1     1       0    0   10    0
 75      1     6       2    0    0    0
 76      1     4       0    0    2    0
 77      1     5       4    0    0    0
 78      1     5       0    9    0    0
 79      1     9       1    0    0    0
 80      1     8       0    0    0    9
 81      1     4       4    0    0    0
 82      1     3       0   10    0    0
 83      1     8       0    0    0    5
 84      1     7      10    0    0    0
 85      1     3       1    0    0    0
 86      1     1       0    0    0    5
 87      1     3       0    8    0    0
 88      1     7       0    0    5    0
 89      1     8       6    0    0    0
 90      1     5       5    0    0    0
 91      1    10       0    0    2    0
 92      1     6       0    0    3    0
 93      1     1       0    8    0    0
 94      1     6       0    0    5    0
 95      1     1       1    0    0    0
 96      1    10       0    9    0    0
 97      1     2       0    0    0    5
 98      1     3       2    0    0    0
 99      1     5       0    4    0    0
100      1     2       9    0    0    0
101      1     4       0    1    0    0
102      1     3       0    0    0    6
103      1     3       7    0    0    0
104      1     9       0    0    0    9
105      1     7       0    0    7    0
106      1    10       9    0    0    0
107      1     5       0    0   10    0
108      1     2       0    0    7    0
109      1     4       0    8    0    0
110      1     3       6    0    0    0
111      1     3       0    0    7    0
112      1     4       0    0    7    0
113      1     4       0    0    1    0
114      1     1       0    0    7    0
115      1     8       0    0    0    5
116      1     1       0    0    7    0
117      1     9       0    9    0    0
118      1     2       0    0    0    9
119      1     2       0    3    0    0
120      1     2       0    0    0    8
121      1     1       7    0    0    0
122      1     0       0    0    0    0
************************************************************************
RESOURCEAVAILABILITIES:
  R 1  R 2  R 3  R 4
   22   17   17   17
************************************************************************
